-225 -241 0
-238 -241 0
-239 -241 0
-241 0
-17 0
1 0
225 0
33 0
-209 0
-49 0
13 0
-161 0
-29 0
-173 0
-193 0
-65 0
9 0
237 0
10 0
-113 0
-25 0
-121 0
-169 0
-125 0
-145 0
-221 0
-77 0
-133 0
-26 0
-122 0
-134 0
-170 0
-137 0
-157 0
-101 0
5 0
7 0
11 0
12 0
15 0
16 0
233 0
3 0
4 0
8 0
6 0
2 0
14 0
234 0
-21 0
0
